Minimize
  0.2 y_0 + 0.2 y_1 + 0.1666666666666667 y_2 + 0.125 y_3
   + 0.0909090909090909 y_4 + 0.1666666666666667 y_5
   + 0.3333333333333333 y_6 + 0.1111111111111111 y_7
   + 0.1111111111111111 y_8 + 0.5 y_9 + 0.2 y_10 + 0.0833333333333333 y_11
   + 0.0909090909090909 y_12 + 0.2 y_13 + 0.1111111111111111 y_14
   + 0.125 y_15 + 0.0666666666666667 y_16 + 0.1111111111111111 y_17
   + 0.125 y_18 + 0.1111111111111111 y_19 + 0.0909090909090909 y_20
   + 0.0769230769230769 y_21 + 0.0714285714285714 y_22 + 0.2 y_23
   + 0.1 y_24 + 0.0769230769230769 y_25 + 0.125 y_26 + 0.125 y_27
   + 0.0833333333333333 y_28 + 0.0769230769230769 y_29
   + 0.1666666666666667 y_30 + 0.1666666666666667 y_31
   + 0.1666666666666667 y_32 + 0.1428571428571428 y_33
   + 0.1666666666666667 y_34 + 0.0909090909090909 y_35
   + 0.1111111111111111 y_36 + 0.0769230769230769 y_37
   + 0.0769230769230769 y_38 + y_39 + 0.1111111111111111 y_40
   + 0.0666666666666667 y_41 + 0.1111111111111111 y_42
   + 0.1428571428571428 y_43 + 0.0833333333333333 y_44
   + 0.1111111111111111 y_45 + 0.1666666666666667 y_46
   + 0.0833333333333333 y_47 + 0.125 y_48 + 0.1 y_49
   - 7.522061272061271 Constant
Subject To
 c_0: y_29 = 1
 c_1_0: y_0 + y_1 + y_5 + y_6 + y_9 + y_30 + y_39 >= 1
 c_1_1: y_0 + y_1 + y_5 + y_6 + y_9 + y_30 + y_39 >= 1
 c_1_2: y_2 + y_3 + y_8 + y_10 + y_13 + y_19 + y_46 >= 1
 c_1_3: y_2 + y_3 + y_8 + y_10 + y_14 + y_19 + y_46 >= 1
 c_1_4: y_4 + y_14 + y_24 >= 1
 c_1_5: y_0 + y_1 + y_5 + y_6 + y_30 + y_42 + y_45 >= 1
 c_1_6: y_0 + y_1 + y_5 + y_6 + y_9 + y_30 + y_39 >= 1
 c_1_7: y_7 + y_26 + y_36 + y_43 >= 1
 c_1_8: y_2 + y_3 + y_8 + y_14 + y_19 + y_28 + y_46 >= 1
 c_1_9: y_0 + y_1 + y_6 + y_9 + y_23 + y_39 >= 1
 c_1_10: y_2 + y_3 + y_10 + y_19 + y_23 + y_46 >= 1
 c_1_11: y_11 + y_38 + y_44 >= 1
 c_1_12: y_12 + y_35 + y_42 + y_45 + y_47 >= 1
 c_1_13: y_2 + y_13 + y_31 + y_34 + y_39 + y_46 >= 1
 c_1_14: y_3 + y_4 + y_8 + y_14 + y_46 >= 1
 c_1_15: y_15 + y_18 + y_35 + y_40 + y_42 + y_45 >= 1
 c_1_16: y_16 + y_29 + y_47 >= 1
 c_1_17: y_17 + y_20 + y_27 + y_30 + y_36 + y_43 >= 1
 c_1_18: y_15 + y_18 + y_33 + y_40 >= 1
 c_1_19: y_2 + y_3 + y_8 + y_10 + y_19 + y_28 >= 1
 c_1_20: y_17 + y_20 + y_36 + y_43 >= 1
 c_1_21: y_21 + y_22 + y_25 + y_37 + y_41 + y_49 >= 1
 c_1_22: y_21 + y_22 + y_25 + y_37 + y_41 >= 1
 c_1_23: y_9 + y_10 + y_23 + y_26 + y_39 + y_43 >= 1
 c_1_24: y_4 + y_24 + y_25 + y_37 + y_48 + y_49 >= 1
 c_1_25: y_21 + y_22 + y_24 + y_25 + y_37 + y_49 >= 1
 c_1_26: y_7 + y_23 + y_26 + y_36 + y_43 >= 1
 c_1_27: y_17 + y_27 + y_30 + y_43 >= 1
 c_1_28: y_8 + y_19 + y_28 >= 1
 c_1_29: y_16 + y_29 + y_35 + y_47 >= 1
 c_1_30: y_0 + y_1 + y_5 + y_6 + y_17 + y_27 + y_30 >= 1
 c_1_31: y_13 + y_31 + y_32 + y_33 + y_34 + y_48 >= 1
 c_1_32: y_31 + y_32 + y_33 + y_34 >= 1
 c_1_33: y_18 + y_31 + y_32 + y_33 + y_34 >= 1
 c_1_34: y_13 + y_31 + y_32 + y_33 + y_34 + y_48 >= 1
 c_1_35: y_12 + y_15 + y_29 + y_35 + y_40 + y_42 + y_45 + y_47 >= 1
 c_1_36: y_7 + y_17 + y_20 + y_26 + y_36 + y_43 >= 1
 c_1_37: y_21 + y_22 + y_24 + y_25 + y_37 + y_49 >= 1
 c_1_38: y_11 + y_38 + y_44 >= 1
 c_1_39: y_0 + y_1 + y_6 + y_9 + y_13 + y_23 + y_39 >= 1
 c_1_40: y_15 + y_18 + y_35 + y_40 + y_42 + y_45 + y_47 >= 1
 c_1_41: y_21 + y_22 + y_41 >= 1
 c_1_42: y_5 + y_12 + y_15 + y_35 + y_40 + y_42 + y_45 >= 1
 c_1_43: y_7 + y_17 + y_20 + y_23 + y_26 + y_27 + y_36 + y_43 >= 1
 c_1_44: y_11 + y_38 + y_44 >= 1
 c_1_45: y_5 + y_12 + y_15 + y_35 + y_40 + y_42 + y_45 + y_47 >= 1
 c_1_46: y_2 + y_3 + y_8 + y_10 + y_13 + y_14 + y_46 >= 1
 c_1_47: y_12 + y_16 + y_29 + y_35 + y_40 + y_45 + y_47 >= 1
 c_1_48: y_24 + y_31 + y_34 + y_48 + y_49 >= 1
 c_1_49: y_21 + y_24 + y_25 + y_37 + y_48 + y_49 >= 1
Bounds
 Constant = 1
Binaries
 y_0 y_1 y_2 y_3 y_4 y_5 y_6 y_7 y_8 y_9 y_10 y_11 y_12 y_13 y_14 y_15 y_16
 y_17 y_18 y_19 y_20 y_21 y_22 y_23 y_24 y_25 y_26 y_27 y_28 y_29 y_30 y_31
 y_32 y_33 y_34 y_35 y_36 y_37 y_38 y_39 y_40 y_41 y_42 y_43 y_44 y_45 y_46
 y_47 y_48 y_49
End
